Nb of jobs, Nb of Machines, Time seed, Machine seed, Upper bound, Lower bound
5,5,-1,-1,-1,-1
Times
51,67,66,4,14
35,96,92,78,19
85,83,2,48,79
13,16,71,87,42
38,54,13,51,47
Machines
2,3,5,1,4
3,2,1,5,4
2,4,1,5,3
4,2,3,1,5
5,2,3,1,4
